networks/zoo_12_30/zoo_12_30-lower.sol
<?xml version = "1.0" encoding="UTF-8" standalone="yes"?>
<CPLEXSolution version="1.2">
 <header
   problemName="networks/zoo_12_30/zoo_12_30-lower.lp"
   solutionName="incumbent"
   solutionIndex="-1"
   objectiveValue="6"
   solutionTypeValue="3"
   solutionTypeString="primal"
   solutionStatusValue="101"
   solutionStatusString="integer optimal solution"
   solutionMethodString="mip"
   primalFeasible="1"
   dualFeasible="1"
   MIPNodes="0"
   MIPIterations="0"
   writeLevel="3"/>
 <quality
   epInt="1.0000000000000001e-05"
   epRHS="9.9999999999999995e-07"
   maxIntInfeas="0"
   maxPrimalInfeas="0"
   maxX="1"
   maxSlack="1"/>
 <variables>
  <variable name="Y(1,2)" index="1" value="1"/>
  <variable name="Y(2,3)" index="14" value="1"/>
  <variable name="Y(3,4)" index="27" value="1"/>
  <variable name="Y(4,5)" index="40" value="1"/>
  <variable name="Y(5,6)" index="53" value="1"/>
  <variable name="Y(6,1)" index="60" value="1"/>
  <variable name="X(1,2,1)" index="360" value="1"/>
  <variable name="X(1,6,4)" index="393" value="1"/>
  <variable name="X(1,7,6)" index="425" value="1"/>
  <variable name="X(2,1,6)" index="455" value="1"/>
  <variable name="X(2,3,2)" index="481" value="1"/>
  <variable name="X(2,8,1)" index="510" value="1"/>
  <variable name="X(3,2,11)" index="550" value="1"/>
  <variable name="X(3,4,3)" index="572" value="1"/>
  <variable name="X(3,9,2)" index="601" value="1"/>
  <variable name="X(4,3,16)" index="645" value="1"/>
  <variable name="X(4,5,14)" index="673" value="1"/>
  <variable name="X(4,10,3)" index="692" value="1"/>
  <variable name="X(5,4,22)" index="741" value="1"/>
  <variable name="X(5,6,20)" index="769" value="1"/>
  <variable name="X(5,11,4)" index="783" value="1"/>
  <variable name="X(6,1,21)" index="830" value="1"/>
  <variable name="X(6,5,4)" index="843" value="1"/>
  <variable name="X(6,12,5)" index="874" value="1"/>
 </variables>
</CPLEXSolution>
